p tw 81 191
0 1
0 2
0 3
0 18
0 19
1 2
1 3
1 24
1 65
1 67
1 68
2 3
2 6
2 7
3 71
4 5
4 20
4 29
4 30
4 31
5 21
6 7
6 67
6 80
7 68
8 9
8 10
8 11
8 32
8 33
8 34
8 35
9 10
9 11
9 40
9 41
9 42
10 11
10 79
11 59
11 60
12 13
12 14
12 49
12 66
13 14
13 45
13 46
13 47
14 50
15 16
15 17
15 19
15 38
15 70
15 74
16 17
16 39
17 29
17 63
17 64
18 19
18 65
19 38
19 70
19 74
20 21
20 29
20 30
20 31
22 23
22 24
22 25
22 26
22 51
22 61
22 62
23 24
23 25
23 26
23 52
24 25
24 26
24 65
24 67
24 68
25 26
25 36
26 78
26 80
27 28
27 54
27 72
28 57
28 73
28 75
29 30
29 31
29 63
29 64
30 31
30 76
30 77
31 51
31 52
31 53
32 33
32 34
32 35
32 40
33 34
33 35
33 59
33 66
34 35
34 60
35 45
35 48
35 49
35 50
36 62
36 78
37 38
37 39
37 58
38 39
38 70
38 74
40 41
40 42
41 42
41 54
41 55
41 56
41 57
42 72
42 73
43 44
43 55
44 56
45 46
45 47
45 48
45 49
45 50
46 47
46 69
46 70
47 79
48 49
48 50
48 69
49 50
49 66
51 52
51 53
51 61
51 62
52 53
53 64
53 76
54 55
54 56
54 57
54 72
55 56
55 57
56 57
57 73
57 75
58 74
58 75
59 60
59 66
61 62
61 71
62 78
63 64
63 77
64 76
65 67
65 68
67 68
67 80
69 70
70 74
72 73
73 75
74 75
76 77
78 80
